results/res_prop_muc/res_Cimatti_mathsat_cores/QF_LIA/ckt_PROP2_tf_25.smt.smt2.out
### boolMucExtractionTime 1866498
