results/res_prop_muc/res_Cimatti_mathsat_cores/QF_LIA/ckt_PROP2_tf_25.smt.smt2.res
unsat
( c10
  c101
  c113
  c129
  c146
  c164
  c167
  c17
  c183
  c202
  c222
  c224
  c243
  c244
  c265
  c266
  c288
  c289
  c29
  c290
  c312
  c314
  c337
  c338
  c340
  c344
  c349
  c356
  c368
  c377
  c38
  c387
  c398
  c410
  c411
  c423
  c437
  c438
  c452
  c468
  c48
  c485
  c5
  c503
  c505
  c522
  c524
  c541
  c542
  c543
  c561
  c562
  c582
  c59
  c604
  c627
  c651
  c676
  c677
  c678
  c679
  c681
  c683
  c686
  c687
  c688
  c689
  c690
  c691
  c693
  c694
  c71
  c84
  c98 )
